units lj
atom_style atomic
boundary p p p
timestep 0.001
read_data diffusion.atoms
mass 1 1.0
mass 2 1.0
group one type 2
pair_style lj/cut 2.5
pair_coeff 1 1 1.0 1.0 2.5
pair_coeff 1 2 1.0 1.0 2.5
pair_coeff 2 2 1.0 1.0 2.5
neighbor 0.3 bin
neigh_modify every 20 delay 0 check no
fix 1 all nve
dump 1 one custom 10 diffusion.lammpstrj id type xs ys zs vx vy vz
run 1000000
